WARNING: for repeatability, setting FPU to use double precision
============================[ Problem Statistics ]=============================
|                                                                             |
|  Number of variables:        190772                                         |
|  Number of clauses:          560192                                         |
|  Parse time:                   0.13 s                                       |
|                                                                             |
c ============================[ Search Statistics ]==============================
c | Conflicts |          ORIGINAL         |          LEARNT          | Progress |
c |           |    Vars  Clauses Literals |    Limit  Clauses Lit/Cl |          |
c ===============================================================================
c Switched to VSIDS.
c Switched to LRB.
c Switched to VSIDS.
c Switched to LRB.
c Switched to VSIDS.
c Switched to LRB.
c Switched to VSIDS.
c Switched to LRB.
c Switched to VSIDS.
c Switched to LRB.
c Switched to VSIDS.
c Switched to LRB.
c Switched to VSIDS.
c Switched to LRB.
c Switched to VSIDS.
c Switched to LRB.
c Switched to VSIDS.
c Switched to LRB.
c Switched to VSIDS.
c Switched to LRB.
c Switched to VSIDS.
c Switched to LRB.
c Switched to VSIDS.
c Switched to LRB.
c Switched to VSIDS.
c Switched to LRB.
c Switched to VSIDS.
c Switched to LRB.
c Switched to VSIDS.
c Switched to LRB.
c Switched to VSIDS.
c Switched to LRB.
c Switched to VSIDS.
c Switched to LRB.
c ===============================================================================
restarts                  : 4461
conflicts                 : 1885143        (527 /sec)
decisions                 : 13646014       (0.00 % random) (3813 /sec)
propagations              : 8227028972     (2298527 /sec)
conflict literals         : 324888197      (60.83 % deleted)

conflicts w/ DIP found    : 1600967        (84.93 % of conflicts)
conflicts w/ dangerous DIP: 0              (0.00 % of conflicts)
conflicts w/ DIP-learning : 9457           (0.50 % of conflicts)
decisions on ext vars     : 69488          (0.51 % of decisions)
total ext vars            : 614         
tried delete ext vars     : 3           
deleted ext vars          : 3           
max ext vars              : 611         

Memory used               : 471.00 MB
CPU time                  : 3579.26 s
DIP computation time      : 36.1905 s (1.01 % of total time)
ER_sel time               : 2.55771 s
ER_add time               : 0.005665 s
ER_delC time              : 0 s
ER_delV time              : 0.00121 s
ER_sub time               : 4.64763 s
ER_stat time              : 0 s

INDETERMINATE
